c colouring generated by benchmark framework
p edge 169 3328
v 1 12
v 2 8
v 3 2
v 4 10
v 5 11
v 6 15
v 7 6
v 8 18
v 9 3
v 10 13
v 11 16
v 12 17
v 13 14
v 14 6
v 15 10
v 16 13
v 17 1
v 18 14
v 19 5
v 20 16
v 21 9
v 22 15
v 23 0
v 24 12
v 25 7
v 26 18
v 27 16
v 28 18
v 29 9
v 30 12
v 31 10
v 32 8
v 33 13
v 34 6
v 35 11
v 36 14
v 37 15
v 38 5
v 39 3
v 40 4
v 41 0
v 42 11
v 43 3
v 44 6
v 45 7
v 46 9
v 47 2
v 48 8
v 49 5
v 50 13
v 51 16
v 52 1
v 53 17
v 54 9
v 55 12
v 56 7
v 57 5
v 58 3
v 59 4
v 60 0
v 61 1
v 62 2
v 63 8
v 64 6
v 65 13
v 66 18
v 67 13
v 68 5
v 69 6
v 70 0
v 71 1
v 72 2
v 73 3
v 74 4
v 75 7
v 76 9
v 77 12
v 78 8
v 79 9
v 80 17
v 81 8
v 82 2
v 83 3
v 84 4
v 85 0
v 86 1
v 87 5
v 88 11
v 89 10
v 90 13
v 91 7
v 92 11
v 93 15
v 94 10
v 95 5
v 96 1
v 97 2
v 98 3
v 99 4
v 100 0
v 101 8
v 102 6
v 103 9
v 104 12
v 105 19
v 106 12
v 107 7
v 108 9
v 109 4
v 110 0
v 111 1
v 112 5
v 113 2
v 114 10
v 115 11
v 116 3
v 117 15
v 118 1
v 119 14
v 120 3
v 121 11
v 122 12
v 123 10
v 124 8
v 125 7
v 126 9
v 127 6
v 128 4
v 129 0
v 130 5
v 131 15
v 132 5
v 133 6
v 134 8
v 135 2
v 136 13
v 137 11
v 138 12
v 139 10
v 140 1
v 141 7
v 142 14
v 143 9
v 144 10
v 145 16
v 146 15
v 147 0
v 148 7
v 149 6
v 150 5
v 151 14
v 152 13
v 153 4
v 154 2
v 155 8
v 156 17
v 157 13
v 158 7
v 159 17
v 160 4
v 161 9
v 162 14
v 163 12
v 164 8
v 165 6
v 166 3
v 167 5
v 168 10
v 169 11
